benchmark/results/graph__10-1000-0.10-03_2/error_log/graph__10-1000-0.10-03_2_QuintonOs_Benders_sub_ERRORLOG.lp
\ This file has been generated by DOcplex
\ ENCODING=ISO-8859-1
\Problem name: Quinton Bounded Benders_dual_sub

Minimize
 obj: 0.001312335958 pi_nr_a0 + 0.001340482574 pi_nr_a1
      + 0.002004008016 pi_nr_a2 + 0.001464128843 pi_nr_a3
      + 0.001020408163 pi_nr_a4 + 0.001269035533 pi_nr_a5
      + 0.001245330012 pi_nr_a6 + 0.001133786848 pi_nr_a7
      + 0.001008064516 pi_nr_a8 + 0.000961538462 pi_nr_a9 + pi_p_a2_a1
      + pi_p_a3_a0 + pi_p_a2_a6 + pi_p_a2_a3 + pi_p_a3_a5 + pi_p_a8_a9
      + 2601 pi_d_a0_a1_proc_0 + 1307 pi_d_a0_a1_proc_1 + 1307 pi_d_a0_a1_proc_2
      + 2576 pi_d_a1_a0_proc_0 + 1282 pi_d_a1_a0_proc_1 + 1282 pi_d_a1_a0_proc_2
      + 1307 pi_d_a0_a2_proc_0 + 1307 pi_d_a0_a2_proc_2 + 1282 pi_d_a2_a0_proc_0
      + 1282 pi_d_a2_a0_proc_2 + 1282 pi_d_a0_a3_proc_0 + 2576 pi_d_a0_a3_proc_1
      + 1307 pi_d_a3_a0_proc_0 + 2601 pi_d_a3_a0_proc_1 + 2588 pi_d_a0_a4_proc_0
      + 2588 pi_d_a0_a4_proc_1 + 2589 pi_d_a4_a0_proc_0 + 2589 pi_d_a4_a0_proc_1
      + pi_d_a4_a0_proc_2 + 1282 pi_d_a0_a5_proc_0 + 1282 pi_d_a0_a5_proc_2
      + 1307 pi_d_a5_a0_proc_0 + 1307 pi_d_a5_a0_proc_2 + 2588 pi_d_a0_a6_proc_1
      + 2589 pi_d_a6_a0_proc_1 + pi_d_a6_a0_proc_2 + 1307 pi_d_a0_a7_proc_1
      + 1307 pi_d_a0_a7_proc_2 + 1282 pi_d_a7_a0_proc_1 + 1282 pi_d_a7_a0_proc_2
      + 1282 pi_d_a0_a8_proc_0 + 2576 pi_d_a0_a8_proc_1 + 1282 pi_d_a0_a8_proc_2
      + 1307 pi_d_a8_a0_proc_0 + 2601 pi_d_a8_a0_proc_1 + 1307 pi_d_a8_a0_proc_2
      + 2600 pi_d_a0_a9_proc_0 + 2600 pi_d_a0_a9_proc_1 + 12 pi_d_a0_a9_proc_2
      + 2577 pi_d_a9_a0_proc_0 + 2577 pi_d_a9_a0_proc_1 - 11 pi_d_a9_a0_proc_2
      + 1307 pi_d_a1_a2_proc_0 + 2601 pi_d_a1_a2_proc_2 + 1282 pi_d_a2_a1_proc_0
      + 2576 pi_d_a2_a1_proc_2 + 1307 pi_d_a1_a3_proc_0 + 1307 pi_d_a1_a3_proc_1
      + 1282 pi_d_a3_a1_proc_0 + 1282 pi_d_a3_a1_proc_1 + 2601 pi_d_a1_a4_proc_0
      + 1307 pi_d_a1_a4_proc_1 + 1307 pi_d_a1_a4_proc_2 + 2576 pi_d_a4_a1_proc_0
      + 1282 pi_d_a4_a1_proc_1 + 1282 pi_d_a4_a1_proc_2 + 1307 pi_d_a1_a5_proc_0
      + 2601 pi_d_a1_a5_proc_2 + 1282 pi_d_a5_a1_proc_0 + 2576 pi_d_a5_a1_proc_2
      + 1307 pi_d_a1_a6_proc_1 + 1307 pi_d_a1_a6_proc_2 + 1282 pi_d_a6_a1_proc_1
      + 1282 pi_d_a6_a1_proc_2 + 2588 pi_d_a1_a7_proc_2 + pi_d_a7_a1_proc_1
      + 2589 pi_d_a7_a1_proc_2 + 1307 pi_d_a1_a8_proc_0 + 1307 pi_d_a1_a8_proc_1
      + 2601 pi_d_a1_a8_proc_2 + 1282 pi_d_a8_a1_proc_0 + 1282 pi_d_a8_a1_proc_1
      + 2576 pi_d_a8_a1_proc_2 + 2601 pi_d_a1_a9_proc_0 + 1307 pi_d_a1_a9_proc_1
      + 1307 pi_d_a1_a9_proc_2 + 2576 pi_d_a9_a1_proc_0 + 1282 pi_d_a9_a1_proc_1
      + 1282 pi_d_a9_a1_proc_2 + pi_d_a2_a3_proc_0 + 1307 pi_d_a2_a4_proc_0
      + 1307 pi_d_a2_a4_proc_2 + 1282 pi_d_a4_a2_proc_0 + 1282 pi_d_a4_a2_proc_2
      + pi_d_a2_a5_proc_0 + 2589 pi_d_a2_a5_proc_2 + 2588 pi_d_a5_a2_proc_2
      + 1307 pi_d_a2_a6_proc_2 + 1282 pi_d_a6_a2_proc_2 + 2601 pi_d_a2_a7_proc_2
      + 2576 pi_d_a7_a2_proc_2 + 13 pi_d_a2_a8_proc_0 + 2601 pi_d_a2_a8_proc_2
      - 12 pi_d_a8_a2_proc_0 + 2576 pi_d_a8_a2_proc_2 + 1307 pi_d_a2_a9_proc_0
      + 1307 pi_d_a2_a9_proc_2 + 1282 pi_d_a9_a2_proc_0 + 1282 pi_d_a9_a2_proc_2
      + 1307 pi_d_a3_a4_proc_0 + 2601 pi_d_a3_a4_proc_1 + 1282 pi_d_a4_a3_proc_0
      + 2576 pi_d_a4_a3_proc_1 + pi_d_a3_a5_proc_0 + 2601 pi_d_a3_a6_proc_1
      + 2576 pi_d_a6_a3_proc_1 + 1282 pi_d_a3_a7_proc_1 + 1307 pi_d_a7_a3_proc_1
      + 12 pi_d_a3_a8_proc_0 + 2600 pi_d_a3_a8_proc_1 - 11 pi_d_a8_a3_proc_0
      + 2577 pi_d_a8_a3_proc_1 + 1307 pi_d_a3_a9_proc_0 + 2601 pi_d_a3_a9_proc_1
      + 1282 pi_d_a9_a3_proc_0 + 2576 pi_d_a9_a3_proc_1 + 1282 pi_d_a4_a5_proc_0
      + 1282 pi_d_a4_a5_proc_2 + 1307 pi_d_a5_a4_proc_0 + 1307 pi_d_a5_a4_proc_2
      + 2589 pi_d_a4_a6_proc_1 + pi_d_a4_a6_proc_2 + 2588 pi_d_a6_a4_proc_1
      + 1307 pi_d_a4_a7_proc_1 + 1307 pi_d_a4_a7_proc_2 + 1282 pi_d_a7_a4_proc_1
      + 1282 pi_d_a7_a4_proc_2 + 1282 pi_d_a4_a8_proc_0 + 2576 pi_d_a4_a8_proc_1
      + 1282 pi_d_a4_a8_proc_2 + 1307 pi_d_a8_a4_proc_0 + 2601 pi_d_a8_a4_proc_1
      + 1307 pi_d_a8_a4_proc_2 + 2601 pi_d_a4_a9_proc_0 + 2601 pi_d_a4_a9_proc_1
      + 13 pi_d_a4_a9_proc_2 + 2576 pi_d_a9_a4_proc_0 + 2576 pi_d_a9_a4_proc_1
      - 12 pi_d_a9_a4_proc_2 + 1307 pi_d_a5_a6_proc_2 + 1282 pi_d_a6_a5_proc_2
      + 2601 pi_d_a5_a7_proc_2 + 2576 pi_d_a7_a5_proc_2 + 12 pi_d_a5_a8_proc_0
      + 2600 pi_d_a5_a8_proc_2 - 11 pi_d_a8_a5_proc_0 + 2577 pi_d_a8_a5_proc_2
      + 1307 pi_d_a5_a9_proc_0 + 1307 pi_d_a5_a9_proc_2 + 1282 pi_d_a9_a5_proc_0
      + 1282 pi_d_a9_a5_proc_2 + 1307 pi_d_a6_a7_proc_1 + 1307 pi_d_a6_a7_proc_2
      + 1282 pi_d_a7_a6_proc_1 + 1282 pi_d_a7_a6_proc_2 + 2601 pi_d_a6_a8_proc_1
      + 1307 pi_d_a6_a8_proc_2 + 2576 pi_d_a8_a6_proc_1 + 1282 pi_d_a8_a6_proc_2
      + 2600 pi_d_a6_a9_proc_1 + 12 pi_d_a6_a9_proc_2 + 2577 pi_d_a9_a6_proc_1
      - 11 pi_d_a9_a6_proc_2 + 1282 pi_d_a7_a8_proc_1 + 2576 pi_d_a7_a8_proc_2
      + 1307 pi_d_a8_a7_proc_1 + 2601 pi_d_a8_a7_proc_2 + 1307 pi_d_a7_a9_proc_1
      + 1307 pi_d_a7_a9_proc_2 + 1282 pi_d_a9_a7_proc_1 + 1282 pi_d_a9_a7_proc_2
      + 1307 pi_d_a8_a9_proc_0 + 2601 pi_d_a8_a9_proc_1 + 1307 pi_d_a8_a9_proc_2
      + 1282 pi_d_a9_a8_proc_0 + 2576 pi_d_a9_a8_proc_1 + 1282 pi_d_a9_a8_proc_2
      + pi_y2_a0_proc_2 + pi_y2_a1_proc_1 + pi_y2_a2_proc_0 + pi_y2_a3_proc_0
      + pi_y2_a4_proc_2 + pi_y2_a5_proc_0 + pi_y2_a6_proc_2 + pi_y2_a7_proc_1
      + pi_y2_a8_proc_0 + pi_y2_a9_proc_2
Subject To
 c1: pi_nr_a0 + pi_nr_a1 + pi_nr_a2 + pi_nr_a3 + pi_nr_a4 + pi_nr_a5 + pi_nr_a6
     + pi_nr_a7 + pi_nr_a8 + pi_nr_a9 - pi_y1_a0 - pi_y1_a1 - pi_y1_a2
     - pi_y1_a3 - pi_y1_a4 - pi_y1_a5 - pi_y1_a6 - pi_y1_a7 - pi_y1_a8
     - pi_y1_a9 >= 1
 c2: - pi_p_a1_a0 - pi_p_a3_a0 + pi_p_a0_a2 + pi_p_a0_a7 + pi_p_a0_a6
     + pi_d_a0_a1_proc_0 + pi_d_a0_a1_proc_1 + pi_d_a0_a1_proc_2
     - pi_d_a1_a0_proc_0 - pi_d_a1_a0_proc_1 - pi_d_a1_a0_proc_2
     + pi_d_a0_a2_proc_0 + pi_d_a0_a2_proc_2 - pi_d_a2_a0_proc_0
     - pi_d_a2_a0_proc_2 + pi_d_a0_a3_proc_0 + pi_d_a0_a3_proc_1
     - pi_d_a3_a0_proc_0 - pi_d_a3_a0_proc_1 + pi_d_a0_a4_proc_0
     + pi_d_a0_a4_proc_1 + pi_d_a0_a4_proc_2 - pi_d_a4_a0_proc_0
     - pi_d_a4_a0_proc_1 - pi_d_a4_a0_proc_2 + pi_d_a0_a5_proc_0
     + pi_d_a0_a5_proc_2 - pi_d_a5_a0_proc_0 - pi_d_a5_a0_proc_2
     + pi_d_a0_a6_proc_1 + pi_d_a0_a6_proc_2 - pi_d_a6_a0_proc_1
     - pi_d_a6_a0_proc_2 + pi_d_a0_a7_proc_1 + pi_d_a0_a7_proc_2
     - pi_d_a7_a0_proc_1 - pi_d_a7_a0_proc_2 + pi_d_a0_a8_proc_0
     + pi_d_a0_a8_proc_1 + pi_d_a0_a8_proc_2 - pi_d_a8_a0_proc_0
     - pi_d_a8_a0_proc_1 - pi_d_a8_a0_proc_2 + pi_d_a0_a9_proc_0
     + pi_d_a0_a9_proc_1 + pi_d_a0_a9_proc_2 - pi_d_a9_a0_proc_0
     - pi_d_a9_a0_proc_1 - pi_d_a9_a0_proc_2 >= 0
 c3: 1294 pi_p_a0_a2 + 1294 pi_p_a0_a7 + 1294 pi_p_a0_a6
     + 1294 pi_d_a0_a1_proc_0 + 1294 pi_d_a0_a2_proc_0 + 1294 pi_d_a0_a3_proc_0
     + 1294 pi_d_a0_a4_proc_0 + 1294 pi_d_a0_a5_proc_0 + 1294 pi_d_a0_a8_proc_0
     + 1294 pi_d_a0_a9_proc_0 + pi_y1_a0 + pi_y2_a0_proc_0 >= 0
 c4: 855 pi_p_a0_a2 + 855 pi_p_a0_a7 + 855 pi_p_a0_a6 + 855 pi_d_a0_a1_proc_1
     + 855 pi_d_a0_a3_proc_1 + 855 pi_d_a0_a4_proc_1 + 855 pi_d_a0_a6_proc_1
     + 855 pi_d_a0_a7_proc_1 + 855 pi_d_a0_a8_proc_1 + 855 pi_d_a0_a9_proc_1
     + pi_y1_a0 + pi_y2_a0_proc_1 >= 0
 c5: 762 pi_p_a0_a2 + 762 pi_p_a0_a7 + 762 pi_p_a0_a6 + 762 pi_d_a0_a1_proc_2
     + 762 pi_d_a0_a2_proc_2 + 762 pi_d_a0_a4_proc_2 + 762 pi_d_a0_a5_proc_2
     + 762 pi_d_a0_a6_proc_2 + 762 pi_d_a0_a7_proc_2 + 762 pi_d_a0_a8_proc_2
     + 762 pi_d_a0_a9_proc_2 + pi_y1_a0 + pi_y2_a0_proc_2 >= 0
 c6: pi_p_a1_a0 - pi_p_a2_a1 - pi_p_a5_a1 - pi_d_a0_a1_proc_0
     - pi_d_a0_a1_proc_1 - pi_d_a0_a1_proc_2 + pi_d_a1_a0_proc_0
     + pi_d_a1_a0_proc_1 + pi_d_a1_a0_proc_2 + pi_d_a1_a2_proc_0
     + pi_d_a1_a2_proc_2 - pi_d_a2_a1_proc_0 - pi_d_a2_a1_proc_2
     + pi_d_a1_a3_proc_0 + pi_d_a1_a3_proc_1 - pi_d_a3_a1_proc_0
     - pi_d_a3_a1_proc_1 + pi_d_a1_a4_proc_0 + pi_d_a1_a4_proc_1
     + pi_d_a1_a4_proc_2 - pi_d_a4_a1_proc_0 - pi_d_a4_a1_proc_1
     - pi_d_a4_a1_proc_2 + pi_d_a1_a5_proc_0 + pi_d_a1_a5_proc_2
     - pi_d_a5_a1_proc_0 - pi_d_a5_a1_proc_2 + pi_d_a1_a6_proc_1
     + pi_d_a1_a6_proc_2 - pi_d_a6_a1_proc_1 - pi_d_a6_a1_proc_2
     + pi_d_a1_a7_proc_1 + pi_d_a1_a7_proc_2 - pi_d_a7_a1_proc_1
     - pi_d_a7_a1_proc_2 + pi_d_a1_a8_proc_0 + pi_d_a1_a8_proc_1
     + pi_d_a1_a8_proc_2 - pi_d_a8_a1_proc_0 - pi_d_a8_a1_proc_1
     - pi_d_a8_a1_proc_2 + pi_d_a1_a9_proc_0 + pi_d_a1_a9_proc_1
     + pi_d_a1_a9_proc_2 - pi_d_a9_a1_proc_0 - pi_d_a9_a1_proc_1
     - pi_d_a9_a1_proc_2 >= 0
 c7: 1034 pi_p_a1_a0 + 1034 pi_d_a1_a0_proc_0 + 1034 pi_d_a1_a2_proc_0
     + 1034 pi_d_a1_a3_proc_0 + 1034 pi_d_a1_a4_proc_0 + 1034 pi_d_a1_a5_proc_0
     + 1034 pi_d_a1_a8_proc_0 + 1034 pi_d_a1_a9_proc_0 + pi_y1_a1
     + pi_y2_a1_proc_0 >= 0
 c8: 746 pi_p_a1_a0 + 746 pi_d_a1_a0_proc_1 + 746 pi_d_a1_a3_proc_1
     + 746 pi_d_a1_a4_proc_1 + 746 pi_d_a1_a6_proc_1 + 746 pi_d_a1_a7_proc_1
     + 746 pi_d_a1_a8_proc_1 + 746 pi_d_a1_a9_proc_1 + pi_y1_a1
     + pi_y2_a1_proc_1 >= 0
 c9: 1247 pi_p_a1_a0 + 1247 pi_d_a1_a0_proc_2 + 1247 pi_d_a1_a2_proc_2
     + 1247 pi_d_a1_a4_proc_2 + 1247 pi_d_a1_a5_proc_2 + 1247 pi_d_a1_a6_proc_2
     + 1247 pi_d_a1_a7_proc_2 + 1247 pi_d_a1_a8_proc_2 + 1247 pi_d_a1_a9_proc_2
     + pi_y1_a1 + pi_y2_a1_proc_2 >= 0
 c10: pi_p_a2_a1 - pi_p_a4_a2 + pi_p_a2_a6 + pi_p_a2_a3 - pi_p_a6_a2
      - pi_p_a0_a2 - pi_d_a0_a2_proc_0 - pi_d_a0_a2_proc_2 + pi_d_a2_a0_proc_0
      + pi_d_a2_a0_proc_2 - pi_d_a1_a2_proc_0 - pi_d_a1_a2_proc_2
      + pi_d_a2_a1_proc_0 + pi_d_a2_a1_proc_2 + pi_d_a2_a3_proc_0
      - pi_d_a3_a2_proc_0 + pi_d_a2_a4_proc_0 + pi_d_a2_a4_proc_2
      - pi_d_a4_a2_proc_0 - pi_d_a4_a2_proc_2 + pi_d_a2_a5_proc_0
      + pi_d_a2_a5_proc_2 - pi_d_a5_a2_proc_0 - pi_d_a5_a2_proc_2
      + pi_d_a2_a6_proc_2 - pi_d_a6_a2_proc_2 + pi_d_a2_a7_proc_2
      - pi_d_a7_a2_proc_2 + pi_d_a2_a8_proc_0 + pi_d_a2_a8_proc_2
      - pi_d_a8_a2_proc_0 - pi_d_a8_a2_proc_2 + pi_d_a2_a9_proc_0
      + pi_d_a2_a9_proc_2 - pi_d_a9_a2_proc_0 - pi_d_a9_a2_proc_2 >= 0
 c11: 499 pi_p_a2_a1 + 499 pi_p_a2_a6 + 499 pi_p_a2_a3 + 499 pi_d_a2_a0_proc_0
      + 499 pi_d_a2_a1_proc_0 + 499 pi_d_a2_a3_proc_0 + 499 pi_d_a2_a4_proc_0
      + 499 pi_d_a2_a5_proc_0 + 499 pi_d_a2_a8_proc_0 + 499 pi_d_a2_a9_proc_0
      + pi_y1_a2 + pi_y2_a2_proc_0 >= 0
 c12: 953 pi_p_a2_a1 + 953 pi_p_a2_a6 + 953 pi_p_a2_a3 + 953 pi_d_a2_a0_proc_2
      + 953 pi_d_a2_a1_proc_2 + 953 pi_d_a2_a4_proc_2 + 953 pi_d_a2_a5_proc_2
      + 953 pi_d_a2_a6_proc_2 + 953 pi_d_a2_a7_proc_2 + 953 pi_d_a2_a8_proc_2
      + 953 pi_d_a2_a9_proc_2 + pi_y1_a2 + pi_y2_a2_proc_2 >= 0
 c13: pi_p_a3_a0 - pi_p_a8_a3 - pi_p_a2_a3 + pi_p_a3_a5 + pi_p_a3_a4
      - pi_d_a0_a3_proc_0 - pi_d_a0_a3_proc_1 + pi_d_a3_a0_proc_0
      + pi_d_a3_a0_proc_1 - pi_d_a1_a3_proc_0 - pi_d_a1_a3_proc_1
      + pi_d_a3_a1_proc_0 + pi_d_a3_a1_proc_1 - pi_d_a2_a3_proc_0
      + pi_d_a3_a2_proc_0 + pi_d_a3_a4_proc_0 + pi_d_a3_a4_proc_1
      - pi_d_a4_a3_proc_0 - pi_d_a4_a3_proc_1 + pi_d_a3_a5_proc_0
      - pi_d_a5_a3_proc_0 + pi_d_a3_a6_proc_1 - pi_d_a6_a3_proc_1
      + pi_d_a3_a7_proc_1 - pi_d_a7_a3_proc_1 + pi_d_a3_a8_proc_0
      + pi_d_a3_a8_proc_1 - pi_d_a8_a3_proc_0 - pi_d_a8_a3_proc_1
      + pi_d_a3_a9_proc_0 + pi_d_a3_a9_proc_1 - pi_d_a9_a3_proc_0
      - pi_d_a9_a3_proc_1 >= 0
 c14: 683 pi_p_a3_a0 + 683 pi_p_a3_a5 + 683 pi_p_a3_a4 + 683 pi_d_a3_a0_proc_0
      + 683 pi_d_a3_a1_proc_0 + 683 pi_d_a3_a2_proc_0 + 683 pi_d_a3_a4_proc_0
      + 683 pi_d_a3_a5_proc_0 + 683 pi_d_a3_a8_proc_0 + 683 pi_d_a3_a9_proc_0
      + pi_y1_a3 + pi_y2_a3_proc_0 >= 0
 c15: 866 pi_p_a3_a0 + 866 pi_p_a3_a5 + 866 pi_p_a3_a4 + 866 pi_d_a3_a0_proc_1
      + 866 pi_d_a3_a1_proc_1 + 866 pi_d_a3_a4_proc_1 + 866 pi_d_a3_a6_proc_1
      + 866 pi_d_a3_a7_proc_1 + 866 pi_d_a3_a8_proc_1 + 866 pi_d_a3_a9_proc_1
      + pi_y1_a3 + pi_y2_a3_proc_1 >= 0
 c16: pi_p_a4_a2 - pi_p_a7_a4 - pi_p_a3_a4 - pi_d_a0_a4_proc_0
      - pi_d_a0_a4_proc_1 - pi_d_a0_a4_proc_2 + pi_d_a4_a0_proc_0
      + pi_d_a4_a0_proc_1 + pi_d_a4_a0_proc_2 - pi_d_a1_a4_proc_0
      - pi_d_a1_a4_proc_1 - pi_d_a1_a4_proc_2 + pi_d_a4_a1_proc_0
      + pi_d_a4_a1_proc_1 + pi_d_a4_a1_proc_2 - pi_d_a2_a4_proc_0
      - pi_d_a2_a4_proc_2 + pi_d_a4_a2_proc_0 + pi_d_a4_a2_proc_2
      - pi_d_a3_a4_proc_0 - pi_d_a3_a4_proc_1 + pi_d_a4_a3_proc_0
      + pi_d_a4_a3_proc_1 + pi_d_a4_a5_proc_0 + pi_d_a4_a5_proc_2
      - pi_d_a5_a4_proc_0 - pi_d_a5_a4_proc_2 + pi_d_a4_a6_proc_1
      + pi_d_a4_a6_proc_2 - pi_d_a6_a4_proc_1 - pi_d_a6_a4_proc_2
      + pi_d_a4_a7_proc_1 + pi_d_a4_a7_proc_2 - pi_d_a7_a4_proc_1
      - pi_d_a7_a4_proc_2 + pi_d_a4_a8_proc_0 + pi_d_a4_a8_proc_1
      + pi_d_a4_a8_proc_2 - pi_d_a8_a4_proc_0 - pi_d_a8_a4_proc_1
      - pi_d_a8_a4_proc_2 + pi_d_a4_a9_proc_0 + pi_d_a4_a9_proc_1
      + pi_d_a4_a9_proc_2 - pi_d_a9_a4_proc_0 - pi_d_a9_a4_proc_1
      - pi_d_a9_a4_proc_2 >= 0
 c17: 993 pi_p_a4_a2 + 993 pi_d_a4_a0_proc_0 + 993 pi_d_a4_a1_proc_0
      + 993 pi_d_a4_a2_proc_0 + 993 pi_d_a4_a3_proc_0 + 993 pi_d_a4_a5_proc_0
      + 993 pi_d_a4_a8_proc_0 + 993 pi_d_a4_a9_proc_0 + pi_y1_a4
      + pi_y2_a4_proc_0 >= 0
 c18: 1184 pi_p_a4_a2 + 1184 pi_d_a4_a0_proc_1 + 1184 pi_d_a4_a1_proc_1
      + 1184 pi_d_a4_a3_proc_1 + 1184 pi_d_a4_a6_proc_1 + 1184 pi_d_a4_a7_proc_1
      + 1184 pi_d_a4_a8_proc_1 + 1184 pi_d_a4_a9_proc_1 + pi_y1_a4
      + pi_y2_a4_proc_1 >= 0
 c19: 980 pi_p_a4_a2 + 980 pi_d_a4_a0_proc_2 + 980 pi_d_a4_a1_proc_2
      + 980 pi_d_a4_a2_proc_2 + 980 pi_d_a4_a5_proc_2 + 980 pi_d_a4_a6_proc_2
      + 980 pi_d_a4_a7_proc_2 + 980 pi_d_a4_a8_proc_2 + 980 pi_d_a4_a9_proc_2
      + pi_y1_a4 + pi_y2_a4_proc_2 >= 0
 c20: pi_p_a5_a1 - pi_p_a3_a5 - pi_p_a8_a5 - pi_d_a0_a5_proc_0
      - pi_d_a0_a5_proc_2 + pi_d_a5_a0_proc_0 + pi_d_a5_a0_proc_2
      - pi_d_a1_a5_proc_0 - pi_d_a1_a5_proc_2 + pi_d_a5_a1_proc_0
      + pi_d_a5_a1_proc_2 - pi_d_a2_a5_proc_0 - pi_d_a2_a5_proc_2
      + pi_d_a5_a2_proc_0 + pi_d_a5_a2_proc_2 - pi_d_a3_a5_proc_0
      + pi_d_a5_a3_proc_0 - pi_d_a4_a5_proc_0 - pi_d_a4_a5_proc_2
      + pi_d_a5_a4_proc_0 + pi_d_a5_a4_proc_2 + pi_d_a5_a6_proc_2
      - pi_d_a6_a5_proc_2 + pi_d_a5_a7_proc_2 - pi_d_a7_a5_proc_2
      + pi_d_a5_a8_proc_0 + pi_d_a5_a8_proc_2 - pi_d_a8_a5_proc_0
      - pi_d_a8_a5_proc_2 + pi_d_a5_a9_proc_0 + pi_d_a5_a9_proc_2
      - pi_d_a9_a5_proc_0 - pi_d_a9_a5_proc_2 >= 0
 c21: 788 pi_p_a5_a1 + 788 pi_d_a5_a0_proc_0 + 788 pi_d_a5_a1_proc_0
      + 788 pi_d_a5_a2_proc_0 + 788 pi_d_a5_a3_proc_0 + 788 pi_d_a5_a4_proc_0
      + 788 pi_d_a5_a8_proc_0 + 788 pi_d_a5_a9_proc_0 + pi_y1_a5
      + pi_y2_a5_proc_0 >= 0
 c22: 998 pi_p_a5_a1 + 998 pi_d_a5_a0_proc_2 + 998 pi_d_a5_a1_proc_2
      + 998 pi_d_a5_a2_proc_2 + 998 pi_d_a5_a4_proc_2 + 998 pi_d_a5_a6_proc_2
      + 998 pi_d_a5_a7_proc_2 + 998 pi_d_a5_a8_proc_2 + 998 pi_d_a5_a9_proc_2
      + pi_y1_a5 + pi_y2_a5_proc_2 >= 0
 c23: - pi_p_a2_a6 + pi_p_a6_a2 - pi_p_a0_a6 - pi_d_a0_a6_proc_1
      - pi_d_a0_a6_proc_2 + pi_d_a6_a0_proc_1 + pi_d_a6_a0_proc_2
      - pi_d_a1_a6_proc_1 - pi_d_a1_a6_proc_2 + pi_d_a6_a1_proc_1
      + pi_d_a6_a1_proc_2 - pi_d_a2_a6_proc_2 + pi_d_a6_a2_proc_2
      - pi_d_a3_a6_proc_1 + pi_d_a6_a3_proc_1 - pi_d_a4_a6_proc_1
      - pi_d_a4_a6_proc_2 + pi_d_a6_a4_proc_1 + pi_d_a6_a4_proc_2
      - pi_d_a5_a6_proc_2 + pi_d_a6_a5_proc_2 + pi_d_a6_a7_proc_1
      + pi_d_a6_a7_proc_2 - pi_d_a7_a6_proc_1 - pi_d_a7_a6_proc_2
      + pi_d_a6_a8_proc_1 + pi_d_a6_a8_proc_2 - pi_d_a8_a6_proc_1
      - pi_d_a8_a6_proc_2 + pi_d_a6_a9_proc_1 + pi_d_a6_a9_proc_2
      - pi_d_a9_a6_proc_1 - pi_d_a9_a6_proc_2 >= 0
 c24: 994 pi_p_a6_a2 + 994 pi_d_a6_a0_proc_1 + 994 pi_d_a6_a1_proc_1
      + 994 pi_d_a6_a3_proc_1 + 994 pi_d_a6_a4_proc_1 + 994 pi_d_a6_a7_proc_1
      + 994 pi_d_a6_a8_proc_1 + 994 pi_d_a6_a9_proc_1 + pi_y1_a6
      + pi_y2_a6_proc_1 >= 0
 c25: 803 pi_p_a6_a2 + 803 pi_d_a6_a0_proc_2 + 803 pi_d_a6_a1_proc_2
      + 803 pi_d_a6_a2_proc_2 + 803 pi_d_a6_a4_proc_2 + 803 pi_d_a6_a5_proc_2
      + 803 pi_d_a6_a7_proc_2 + 803 pi_d_a6_a8_proc_2 + 803 pi_d_a6_a9_proc_2
      + pi_y1_a6 + pi_y2_a6_proc_2 >= 0
 c26: pi_p_a7_a4 - pi_p_a9_a7 - pi_p_a0_a7 - pi_d_a0_a7_proc_1
      - pi_d_a0_a7_proc_2 + pi_d_a7_a0_proc_1 + pi_d_a7_a0_proc_2
      - pi_d_a1_a7_proc_1 - pi_d_a1_a7_proc_2 + pi_d_a7_a1_proc_1
      + pi_d_a7_a1_proc_2 - pi_d_a2_a7_proc_2 + pi_d_a7_a2_proc_2
      - pi_d_a3_a7_proc_1 + pi_d_a7_a3_proc_1 - pi_d_a4_a7_proc_1
      - pi_d_a4_a7_proc_2 + pi_d_a7_a4_proc_1 + pi_d_a7_a4_proc_2
      - pi_d_a5_a7_proc_2 + pi_d_a7_a5_proc_2 - pi_d_a6_a7_proc_1
      - pi_d_a6_a7_proc_2 + pi_d_a7_a6_proc_1 + pi_d_a7_a6_proc_2
      + pi_d_a7_a8_proc_1 + pi_d_a7_a8_proc_2 - pi_d_a8_a7_proc_1
      - pi_d_a8_a7_proc_2 + pi_d_a7_a9_proc_1 + pi_d_a7_a9_proc_2
      - pi_d_a9_a7_proc_1 - pi_d_a9_a7_proc_2 >= 0
 c27: 882 pi_p_a7_a4 + 882 pi_d_a7_a0_proc_1 + 882 pi_d_a7_a1_proc_1
      + 882 pi_d_a7_a3_proc_1 + 882 pi_d_a7_a4_proc_1 + 882 pi_d_a7_a6_proc_1
      + 882 pi_d_a7_a8_proc_1 + 882 pi_d_a7_a9_proc_1 + pi_y1_a7
      + pi_y2_a7_proc_1 >= 0
 c28: 1056 pi_p_a7_a4 + 1056 pi_d_a7_a0_proc_2 + 1056 pi_d_a7_a1_proc_2
      + 1056 pi_d_a7_a2_proc_2 + 1056 pi_d_a7_a4_proc_2 + 1056 pi_d_a7_a5_proc_2
      + 1056 pi_d_a7_a6_proc_2 + 1056 pi_d_a7_a8_proc_2 + 1056 pi_d_a7_a9_proc_2
      + pi_y1_a7 + pi_y2_a7_proc_2 >= 0
 c29: pi_p_a8_a3 + pi_p_a8_a5 + pi_p_a8_a9 - pi_p_a9_a8 - pi_d_a0_a8_proc_0
      - pi_d_a0_a8_proc_1 - pi_d_a0_a8_proc_2 + pi_d_a8_a0_proc_0
      + pi_d_a8_a0_proc_1 + pi_d_a8_a0_proc_2 - pi_d_a1_a8_proc_0
      - pi_d_a1_a8_proc_1 - pi_d_a1_a8_proc_2 + pi_d_a8_a1_proc_0
      + pi_d_a8_a1_proc_1 + pi_d_a8_a1_proc_2 - pi_d_a2_a8_proc_0
      - pi_d_a2_a8_proc_2 + pi_d_a8_a2_proc_0 + pi_d_a8_a2_proc_2
      - pi_d_a3_a8_proc_0 - pi_d_a3_a8_proc_1 + pi_d_a8_a3_proc_0
      + pi_d_a8_a3_proc_1 - pi_d_a4_a8_proc_0 - pi_d_a4_a8_proc_1
      - pi_d_a4_a8_proc_2 + pi_d_a8_a4_proc_0 + pi_d_a8_a4_proc_1
      + pi_d_a8_a4_proc_2 - pi_d_a5_a8_proc_0 - pi_d_a5_a8_proc_2
      + pi_d_a8_a5_proc_0 + pi_d_a8_a5_proc_2 - pi_d_a6_a8_proc_1
      - pi_d_a6_a8_proc_2 + pi_d_a8_a6_proc_1 + pi_d_a8_a6_proc_2
      - pi_d_a7_a8_proc_1 - pi_d_a7_a8_proc_2 + pi_d_a8_a7_proc_1
      + pi_d_a8_a7_proc_2 + pi_d_a8_a9_proc_0 + pi_d_a8_a9_proc_1
      + pi_d_a8_a9_proc_2 - pi_d_a9_a8_proc_0 - pi_d_a9_a8_proc_1
      - pi_d_a9_a8_proc_2 >= 0
 c30: 992 pi_p_a8_a3 + 992 pi_p_a8_a5 + 992 pi_p_a8_a9 + 992 pi_d_a8_a0_proc_0
      + 992 pi_d_a8_a1_proc_0 + 992 pi_d_a8_a2_proc_0 + 992 pi_d_a8_a3_proc_0
      + 992 pi_d_a8_a4_proc_0 + 992 pi_d_a8_a5_proc_0 + 992 pi_d_a8_a9_proc_0
      + pi_y1_a8 + pi_y2_a8_proc_0 >= 0
 c31: 1271 pi_p_a8_a3 + 1271 pi_p_a8_a5 + 1271 pi_p_a8_a9
      + 1271 pi_d_a8_a0_proc_1 + 1271 pi_d_a8_a1_proc_1 + 1271 pi_d_a8_a3_proc_1
      + 1271 pi_d_a8_a4_proc_1 + 1271 pi_d_a8_a6_proc_1 + 1271 pi_d_a8_a7_proc_1
      + 1271 pi_d_a8_a9_proc_1 + pi_y1_a8 + pi_y2_a8_proc_1 >= 0
 c32: 974 pi_p_a8_a3 + 974 pi_p_a8_a5 + 974 pi_p_a8_a9 + 974 pi_d_a8_a0_proc_2
      + 974 pi_d_a8_a1_proc_2 + 974 pi_d_a8_a2_proc_2 + 974 pi_d_a8_a4_proc_2
      + 974 pi_d_a8_a5_proc_2 + 974 pi_d_a8_a6_proc_2 + 974 pi_d_a8_a7_proc_2
      + 974 pi_d_a8_a9_proc_2 + pi_y1_a8 + pi_y2_a8_proc_2 >= 0
 c33: pi_p_a9_a7 - pi_p_a8_a9 + pi_p_a9_a8 - pi_d_a0_a9_proc_0
      - pi_d_a0_a9_proc_1 - pi_d_a0_a9_proc_2 + pi_d_a9_a0_proc_0
      + pi_d_a9_a0_proc_1 + pi_d_a9_a0_proc_2 - pi_d_a1_a9_proc_0
      - pi_d_a1_a9_proc_1 - pi_d_a1_a9_proc_2 + pi_d_a9_a1_proc_0
      + pi_d_a9_a1_proc_1 + pi_d_a9_a1_proc_2 - pi_d_a2_a9_proc_0
      - pi_d_a2_a9_proc_2 + pi_d_a9_a2_proc_0 + pi_d_a9_a2_proc_2
      - pi_d_a3_a9_proc_0 - pi_d_a3_a9_proc_1 + pi_d_a9_a3_proc_0
      + pi_d_a9_a3_proc_1 - pi_d_a4_a9_proc_0 - pi_d_a4_a9_proc_1
      - pi_d_a4_a9_proc_2 + pi_d_a9_a4_proc_0 + pi_d_a9_a4_proc_1
      + pi_d_a9_a4_proc_2 - pi_d_a5_a9_proc_0 - pi_d_a5_a9_proc_2
      + pi_d_a9_a5_proc_0 + pi_d_a9_a5_proc_2 - pi_d_a6_a9_proc_1
      - pi_d_a6_a9_proc_2 + pi_d_a9_a6_proc_1 + pi_d_a9_a6_proc_2
      - pi_d_a7_a9_proc_1 - pi_d_a7_a9_proc_2 + pi_d_a9_a7_proc_1
      + pi_d_a9_a7_proc_2 - pi_d_a8_a9_proc_0 - pi_d_a8_a9_proc_1
      - pi_d_a8_a9_proc_2 + pi_d_a9_a8_proc_0 + pi_d_a9_a8_proc_1
      + pi_d_a9_a8_proc_2 >= 0
 c34: 1162 pi_p_a9_a7 + 1162 pi_p_a9_a8 + 1162 pi_d_a9_a0_proc_0
      + 1162 pi_d_a9_a1_proc_0 + 1162 pi_d_a9_a2_proc_0 + 1162 pi_d_a9_a3_proc_0
      + 1162 pi_d_a9_a4_proc_0 + 1162 pi_d_a9_a5_proc_0 + 1162 pi_d_a9_a8_proc_0
      + pi_y1_a9 + pi_y2_a9_proc_0 >= 0
 c35: 1195 pi_p_a9_a7 + 1195 pi_p_a9_a8 + 1195 pi_d_a9_a0_proc_1
      + 1195 pi_d_a9_a1_proc_1 + 1195 pi_d_a9_a3_proc_1 + 1195 pi_d_a9_a4_proc_1
      + 1195 pi_d_a9_a6_proc_1 + 1195 pi_d_a9_a7_proc_1 + 1195 pi_d_a9_a8_proc_1
      + pi_y1_a9 + pi_y2_a9_proc_1 >= 0
 c36: 1040 pi_p_a9_a7 + 1040 pi_p_a9_a8 + 1040 pi_d_a9_a0_proc_2
      + 1040 pi_d_a9_a1_proc_2 + 1040 pi_d_a9_a2_proc_2 + 1040 pi_d_a9_a4_proc_2
      + 1040 pi_d_a9_a5_proc_2 + 1040 pi_d_a9_a6_proc_2 + 1040 pi_d_a9_a7_proc_2
      + 1040 pi_d_a9_a8_proc_2 + pi_y1_a9 + pi_y2_a9_proc_2 >= 0

Bounds
       pi_y1_a0 Free
       pi_y1_a1 Free
       pi_y1_a2 Free
       pi_y1_a3 Free
       pi_y1_a4 Free
       pi_y1_a5 Free
       pi_y1_a6 Free
       pi_y1_a7 Free
       pi_y1_a8 Free
       pi_y1_a9 Free
End
