benchmark/results/graph__10-1000-0.10-03_2/error_log/graph__10-1000-0.10-03_2_QuintonOs_Benders_sub_ERRORLOG.txt
solution for: Quinton Bounded Benders_dual_sub
objective: 0.00017762
status: OPTIMAL_SOLUTION(2)
pi_p_a1_a0=0.000
pi_p_a5_a1=0.000
pi_p_a9_a8=0.000
pi_d_a0_a6_proc_2=0.000
pi_d_a2_a5_proc_0=0.000
pi_d_a8_a2_proc_0=0.000
pi_d_a6_a9_proc_2=0.000
pi_y1_a0=-0.135
pi_y1_a1=-0.133
pi_y1_a2=-0.089
pi_y1_a5=-0.140
pi_y1_a6=-0.143
pi_y1_a8=-0.176
pi_y1_a9=-0.185
pi_y2_a0_proc_0=0.135
pi_y2_a0_proc_1=0.135
pi_y2_a2_proc_2=0.089
pi_y2_a6_proc_1=0.143
pi_y2_a8_proc_1=0.176
pi_y2_a8_proc_2=0.176
